50
8654

374 610
466 972
461 366
788 224
32 581
537 270
64 359
766 628
379 728
628 849
653 455
546 878
500 633
993 188
897 174
328 32
525 484
691 931
860 573
422 61
343 114
859 662
704 692
673 270
124 664
151 555
63 886
46 316
941 981
770 436
808 651
356 846
2 684
566 697
710 937
110 713
508 837
98 704
985 660
184 132
291 72
363 367
681 79
70 482
176 817
758 819
439 307
426 665
78 8
606 59
